% number of games is 49
num = 49;
cap = 5;
refill = 2;
fun = [10, -13, -10, 18, -15, -8, 3, 6, 5, 16, -12, -16, 2, 11, -20, 13, -15, -18, 6, -15, 4, 0, 9, -9, 18, 18, -15, -4, -3, -19, 9, 19, 14, 11, -10, -2, -6, 17, 2, 19, 9, 15, 10, 2, 8, 19, -12, -2, 4];
